135	32	4	53	
10	10	10	10

0	0	0	0	0	0	22	1	3	7	12	13	14	15	16	17	18	19	20	21	22	23	24	25	26	27	28	29	30
1	1	1	0	2	4	2	11	2
2	7	0	1	3	4	1	4
3	6	0	4	7	4	2	10	6
4	0	3	6	3	3	1	5
5	3	4	0	3	1	1	6
6	3	5	0	4	4	1	8
7	5	4	0	2	4	1	9
8	6	0	4	2	6	1	31
9	0	2	2	5	7	1	31
10	4	3	5	0	4	1	31
11	0	4	4	5	8	1	31
12	4	3	0	3	6	1	31
13	5	3	0	3	8	1	31
14	6	4	0	10	3	1	31
15	2	0	2	5	2	1	31
16	5	0	6	5	8	1	31
17	2	0	3	2	1	1	31
18	5	3	0	3	1	1	31
19	2	4	3	0	4	1	31
20	0	5	8	4	2	1	31
21	3	0	2	4	3	1	31
22	2	5	0	4	5	1	31
23	2	0	4	5	9	1	31
24	0	3	3	4	2	1	31
25	3	0	7	4	5	1	31
26	4	3	5	0	5	1	31
27	0	6	2	5	2	1	31
28	5	6	5	0	10	1	31
29	5	0	6	3	2	1	31
30	6	9	2	0	8	1	31
31	0	0	0	0	0	0
